n1 = 5;
adjacent1 = [| 0, 0, 0, 0, 1
| 0, 0, 0, 0, 0
| 0, 0, 0, 1, 0
| 0, 0, 1, 0, 0
| 1, 0, 0, 0, 0 |];
n2 = 5;
adjacent2 = [| 0, 0, 0, 0, 1
| 0, 0, 1, 0, 0
| 0, 1, 0, 0, 0
| 0, 0, 0, 0, 0
| 1, 0, 0, 0, 0 |];
vertexDeletionCost = [45, 45, 45, 45, 45];
vertexInsertionCost = [45, 45, 45, 45, 45];
vertexSubstitutionCost = [| 33.301651610693426, 90, 64.90377492873584, 90, 90
| 90, 90, 90, 11.280514172678478, 90
| 90, 34.92849839314596, 90, 90, 31.827660925679098
| 20.862646045025066, 90, 33.094561486745825, 90, 90
| 90, 69.35776813018136, 90, 90, 32.931747600150224 |];
edgeDeletionCost = [| 0.0, 0.0, 0.0, 0.0, 15.0
| 0.0, 0.0, 0.0, 0.0, 0.0
| 0.0, 0.0, 0.0, 15.0, 0.0
| 0.0, 0.0, 15.0, 0.0, 0.0
| 15.0, 0.0, 0.0, 0.0, 0.0 |];
edgeInsertionCost = [| 0.0, 0.0, 0.0, 0.0, 15.0
| 0.0, 0.0, 15.0, 0.0, 0.0
| 0.0, 15.0, 0.0, 0.0, 0.0
| 0.0, 0.0, 0.0, 0.0, 0.0
| 15.0, 0.0, 0.0, 0.0, 0.0 |];
edgeSubstitutionCost = array4d(1..n1, 1..n1, 1..n2, 1..n2, [0, 0, 0, 0, 15.0, 0, 0, 15.0, 0, 0, 0, 15.0, 0, 0, 0, 0, 0, 0, 0, 0, 15.0, 0, 0, 0, 0, 0, 0, 0, 0, 15.0, 0, 0, 15.0, 0, 0, 0, 15.0, 0, 0, 0, 0, 0, 0, 0, 0, 15.0, 0, 0, 0, 0, 0, 0, 0, 0, 15.0, 0, 0, 15.0, 0, 0, 0, 15.0, 0, 0, 0, 0, 0, 0, 0, 0, 15.0, 0, 0, 0, 0, 0, 0, 0, 0, 15.0, 0, 0, 15.0, 0, 0, 0, 15.0, 0, 0, 0, 0, 0, 0, 0, 0, 15.0, 0, 0, 0, 0, 15.0, 15.0, 15.0, 15.0, 0.0, 15.0, 15.0, 0.0, 15.0, 15.0, 15.0, 0.0, 15.0, 15.0, 15.0, 15.0, 15.0, 15.0, 15.0, 15.0, 0.0, 15.0, 15.0, 15.0, 15.0, 0, 0, 0, 0, 15.0, 0, 0, 15.0, 0, 0, 0, 15.0, 0, 0, 0, 0, 0, 0, 0, 0, 15.0, 0, 0, 0, 0, 0, 0, 0, 0, 15.0, 0, 0, 15.0, 0, 0, 0, 15.0, 0, 0, 0, 0, 0, 0, 0, 0, 15.0, 0, 0, 0, 0, 0, 0, 0, 0, 15.0, 0, 0, 15.0, 0, 0, 0, 15.0, 0, 0, 0, 0, 0, 0, 0, 0, 15.0, 0, 0, 0, 0, 0, 0, 0, 0, 15.0, 0, 0, 15.0, 0, 0, 0, 15.0, 0, 0, 0, 0, 0, 0, 0, 0, 15.0, 0, 0, 0, 0, 0, 0, 0, 0, 15.0, 0, 0, 15.0, 0, 0, 0, 15.0, 0, 0, 0, 0, 0, 0, 0, 0, 15.0, 0, 0, 0, 0, 0, 0, 0, 0, 15.0, 0, 0, 15.0, 0, 0, 0, 15.0, 0, 0, 0, 0, 0, 0, 0, 0, 15.0, 0, 0, 0, 0, 0, 0, 0, 0, 15.0, 0, 0, 15.0, 0, 0, 0, 15.0, 0, 0, 0, 0, 0, 0, 0, 0, 15.0, 0, 0, 0, 0, 0, 0, 0, 0, 15.0, 0, 0, 15.0, 0, 0, 0, 15.0, 0, 0, 0, 0, 0, 0, 0, 0, 15.0, 0, 0, 0, 0, 15.0, 15.0, 15.0, 15.0, 0.0, 15.0, 15.0, 0.0, 15.0, 15.0, 15.0, 0.0, 15.0, 15.0, 15.0, 15.0, 15.0, 15.0, 15.0, 15.0, 0.0, 15.0, 15.0, 15.0, 15.0, 0, 0, 0, 0, 15.0, 0, 0, 15.0, 0, 0, 0, 15.0, 0, 0, 0, 0, 0, 0, 0, 0, 15.0, 0, 0, 0, 0, 0, 0, 0, 0, 15.0, 0, 0, 15.0, 0, 0, 0, 15.0, 0, 0, 0, 0, 0, 0, 0, 0, 15.0, 0, 0, 0, 0, 0, 0, 0, 0, 15.0, 0, 0, 15.0, 0, 0, 0, 15.0, 0, 0, 0, 0, 0, 0, 0, 0, 15.0, 0, 0, 0, 0, 15.0, 15.0, 15.0, 15.0, 0.0, 15.0, 15.0, 0.0, 15.0, 15.0, 15.0, 0.0, 15.0, 15.0, 15.0, 15.0, 15.0, 15.0, 15.0, 15.0, 0.0, 15.0, 15.0, 15.0, 15.0, 0, 0, 0, 0, 15.0, 0, 0, 15.0, 0, 0, 0, 15.0, 0, 0, 0, 0, 0, 0, 0, 0, 15.0, 0, 0, 0, 0, 0, 0, 0, 0, 15.0, 0, 0, 15.0, 0, 0, 0, 15.0, 0, 0, 0, 0, 0, 0, 0, 0, 15.0, 0, 0, 0, 0, 15.0, 15.0, 15.0, 15.0, 0.0, 15.0, 15.0, 0.0, 15.0, 15.0, 15.0, 0.0, 15.0, 15.0, 15.0, 15.0, 15.0, 15.0, 15.0, 15.0, 0.0, 15.0, 15.0, 15.0, 15.0, 0, 0, 0, 0, 15.0, 0, 0, 15.0, 0, 0, 0, 15.0, 0, 0, 0, 0, 0, 0, 0, 0, 15.0, 0, 0, 0, 0, 0, 0, 0, 0, 15.0, 0, 0, 15.0, 0, 0, 0, 15.0, 0, 0, 0, 0, 0, 0, 0, 0, 15.0, 0, 0, 0, 0, 0, 0, 0, 0, 15.0, 0, 0, 15.0, 0, 0, 0, 15.0, 0, 0, 0, 0, 0, 0, 0, 0, 15.0, 0, 0, 0, 0, 0, 0, 0, 0, 15.0, 0, 0, 15.0, 0, 0, 0, 15.0, 0, 0, 0, 0, 0, 0, 0, 0, 15.0, 0, 0, 0, 0]);
